# Solution for model GasLib-40
# Objective value = 1.1793496151512546e+01
loadshed[innode_1] 0
loadshed[innode_2] 0
loadshed[innode_3] 0
loadshed[innode_4] 0
loadshed[innode_5] 0
loadshed[innode_6] 0
loadshed[innode_7] 0
loadshed[innode_8] 0
loadshed[source_1] -2.8834202961886257e-01
loadshed[source_2] 6.1831171767962045e-02
loadshed[source_3] 3.0111061387165639e-01
loadshed[sink_1] 0
loadshed[sink_2] 0
loadshed[sink_3] 0
loadshed[sink_4] 0
loadshed[sink_5] 0
loadshed[sink_6] 0
loadshed[sink_7] 0
loadshed[sink_8] 0
loadshed[sink_9] 0
loadshed[sink_10] 0
loadshed[sink_11] 0
loadshed[sink_12] 7.2113097486955691e-01
loadshed[sink_13] 0
loadshed[sink_14] 0
loadshed[sink_15] 0
loadshed[sink_16] 0
loadshed[sink_17] 0
loadshed[sink_18] 0
loadshed[sink_19] 0
loadshed[sink_20] 0
loadshed[sink_21] 0
loadshed[sink_22] 0
loadshed[sink_23] 0
loadshed[sink_24] 0
loadshed[sink_25] 0
loadshed[sink_26] 0
loadshed[sink_27] 0
loadshed[sink_28] 0
loadshed[sink_29] 0
flow[source_1,sink_3] 2.0367434933523197e+02
flow[innode_1,sink_16] 1.6354166666666970e+01
flow[innode_6,sink_13] 3.9915494777097109e+00
flow[sink_13,sink_14] -1.2362617188956957e+01
flow[sink_14,sink_10] -2.8716783855623625e+01
flow[sink_25,sink_26] 1.7477634202107228e+02
flow[sink_26,sink_9] 1.3539400384848781e+02
flow[sink_9,sink_18] 1.1903983718182114e+02
flow[sink_26,sink_4] 2.3028171505917854e+01
flow[sink_4,sink_20] -1.6808987591321664e+01
flow[sink_18,sink_6] 1.0268567051515447e+02
flow[sink_25,innode_8] -1.7096601600189561e+02
flow[sink_6,sink_7] 5.3623170515154129e+01
flow[sink_6,sink_22] 3.2708333333333641e+01
flow[sink_7,sink_24] 3.7269003848487458e+01
flow[sink_22,sink_1] 1.6354166666666970e+01
flow[sink_24,sink_21] 2.0914837181820790e+01
flow[sink_21,sink_12] 4.5606705151541211e+00
flow[sink_7,sink_5] 0
flow[sink_5,sink_17] -1.6354166666667197e+01
flow[sink_17,sink_4] -2.3482992430572850e+01
flow[sink_17,sink_8] -9.2253409027610154e+00
flow[sink_3,sink_23] 16.3541666666697
flow[sink_8,sink_20] -2.5579507569427683e+01
flow[sink_25,sink_20] 5.8742661827415986e+01
flow[sink_25,sink_15] -8.2898703990969651e+01
flow[sink_15,sink_29] -9.9252870657636322e+01
flow[sink_29,sink_28] 1.6354166666667879e+01
flow[sink_29,sink_2] 1.6354166666684250e+01
flow[sink_2,sink_15] 0
flow[sink_29,innode_7] -1.4831537065765517e+02
flow[innode_4,sink_19] 9.4133450522290730e+01
flow[sink_19,innode_3] 3.7955962215365808e+01
flow[innode_4,innode_5] 1.6354166666679703e+01
flow[sink_27,innode_5] -1.6354166666679703e+01
flow[sink_27,sink_19] 0
flow[sink_10,sink_11] 3.2708333333333641e+01
flow[sink_10,innode_2] -3.9823321640258122e+01
flow[sink_10,innode_3] -3.7955962215365808e+01
flow[innode_6,sink_25] -3.9915494777097109e+00
flow[sink_11,innode_1] 1.6354166666666970e+01
flow[sink_19,innode_2] 3.9823321640258122e+01
flow[source_3,innode_4] 1.1048761718897043e+02
flow[source_2,innode_7] 1.4831537065765517e+02
flow[sink_3,innode_8] 1.7096601600189561e+02
pressure[innode_1] 7.4943135733946690e+01
pressure[innode_2] 7.7199664065943026e+01
pressure[innode_3] 7.7115614885663561e+01
pressure[innode_4] 81.01325
pressure[innode_5] 8.1002000741808786e+01
pressure[innode_6] 7.3736454276435353e+01
pressure[innode_7] 81.01325
pressure[innode_8] 8.0332444456593933e+01
pressure[source_1] 81.01325
pressure[source_2] 81.01325
pressure[source_3] 81.01325
pressure[sink_1] 44.1730717181745
pressure[sink_2] 7.6632125361241080e+01
pressure[sink_3] 8.0332444456593933e+01
pressure[sink_4] 5.8499197823514010e+01
pressure[sink_5] 5.6383488080236759e+01
pressure[sink_6] 4.6274149328561869e+01
pressure[sink_7] 4.5538031015681845e+01
pressure[sink_8] 5.7949851364698993e+01
pressure[sink_9] 5.3323378575708190e+01
pressure[sink_10] 7.5094837041550235e+01
pressure[sink_11] 7.4943135733946690e+01
pressure[sink_12] 1.0132500000000038e+00
pressure[sink_13] 7.3714449531214612e+01
pressure[sink_14] 73.7365734877364
pressure[sink_15] 7.4138593769098776e+01
pressure[sink_16] 7.3921485899129010e+01
pressure[sink_17] 5.7601755285591508e+01
pressure[sink_18] 4.9016162466736354e+01
pressure[sink_19] 7.7199664065943026e+01
pressure[sink_20] 5.9732383310740040e+01
pressure[sink_21] 2.6361861757614058e+00
pressure[sink_22] 4.5236840860529504e+01
pressure[sink_23] 8.0167726444934146e+01
pressure[sink_24] 2.8677985653487994e+00
pressure[sink_25] 7.3736454276435353e+01
pressure[sink_26] 6.1427059148344895e+01
pressure[sink_27] 8.0866291377726043e+01
pressure[sink_28] 7.6751112586087558e+01
pressure[sink_29] 7.7046394859704733e+01
interdiction[source_1,sink_3] 0
interdiction[innode_1,sink_16] 0
interdiction[innode_6,sink_13] 0
interdiction[sink_13,sink_14] 0
interdiction[sink_14,sink_10] 0
interdiction[sink_25,sink_26] 0
interdiction[sink_26,sink_9] 0
interdiction[sink_9,sink_18] 0
interdiction[sink_26,sink_4] 0
interdiction[sink_4,sink_20] 0
interdiction[sink_18,sink_6] 0
interdiction[sink_25,innode_8] 0
interdiction[sink_6,sink_7] 0
interdiction[sink_6,sink_22] 0
interdiction[sink_7,sink_24] 0
interdiction[sink_22,sink_1] 0
interdiction[sink_24,sink_21] 0
interdiction[sink_21,sink_12] 0
interdiction[sink_7,sink_5] 1
interdiction[sink_5,sink_17] 0
interdiction[sink_17,sink_4] 0
interdiction[sink_17,sink_8] 0
interdiction[sink_3,sink_23] 0
interdiction[sink_8,sink_20] 0
interdiction[sink_25,sink_20] 0
interdiction[sink_25,sink_15] 0
interdiction[sink_15,sink_29] 0
interdiction[sink_29,sink_28] 0
interdiction[sink_29,sink_2] 0
interdiction[sink_2,sink_15] 1
interdiction[sink_29,innode_7] 0
interdiction[innode_4,sink_19] 0
interdiction[sink_19,innode_3] 0
interdiction[innode_4,innode_5] 0
interdiction[sink_27,innode_5] 0
interdiction[sink_27,sink_19] 1
interdiction[sink_10,sink_11] 0
interdiction[sink_10,innode_2] 0
interdiction[sink_10,innode_3] 0
interdiction[innode_6,sink_25] 0
interdiction[sink_11,innode_1] 0
interdiction[sink_19,innode_2] 0
interdiction[source_3,innode_4] 0
interdiction[source_2,innode_7] 0
interdiction[sink_3,innode_8] 0
WCcheckFlow[source_1,sink_3] 39
WCcheckFlow[innode_1,sink_16] 1
WCcheckFlow[innode_6,sink_13] 13
WCcheckFlow[sink_13,sink_14] 12
WCcheckFlow[sink_14,sink_10] 11
WCcheckFlow[sink_25,sink_26] 15
WCcheckFlow[sink_26,sink_9] 9
WCcheckFlow[sink_9,sink_18] 8
WCcheckFlow[sink_26,sink_4] 5
WCcheckFlow[sink_4,sink_20] 1
WCcheckFlow[sink_18,sink_6] 7
WCcheckFlow[sink_25,innode_8] -36
WCcheckFlow[sink_6,sink_7] 4
WCcheckFlow[sink_6,sink_22] 2
WCcheckFlow[sink_7,sink_24] 3
WCcheckFlow[sink_22,sink_1] 1
WCcheckFlow[sink_24,sink_21] 2
WCcheckFlow[sink_21,sink_12] 1
WCcheckFlow[sink_7,sink_5] 0
WCcheckFlow[sink_5,sink_17] -1
WCcheckFlow[sink_17,sink_4] -3
WCcheckFlow[sink_17,sink_8] 1
WCcheckFlow[sink_3,sink_23] 1
WCcheckFlow[sink_8,sink_20] 0
WCcheckFlow[sink_25,sink_20] 0
WCcheckFlow[sink_25,sink_15] 6
WCcheckFlow[sink_15,sink_29] 5
WCcheckFlow[sink_29,sink_28] 1
WCcheckFlow[sink_29,sink_2] 1
WCcheckFlow[sink_2,sink_15] 0
WCcheckFlow[sink_29,innode_7] 2
WCcheckFlow[innode_4,sink_19] -4
WCcheckFlow[sink_19,innode_3] -5
WCcheckFlow[innode_4,innode_5] 2
WCcheckFlow[sink_27,innode_5] -1
WCcheckFlow[sink_27,sink_19] 0
WCcheckFlow[sink_10,sink_11] 3
WCcheckFlow[sink_10,innode_2] 1
WCcheckFlow[sink_10,innode_3] 6
WCcheckFlow[innode_6,sink_25] -14
WCcheckFlow[sink_11,innode_1] 2
WCcheckFlow[sink_19,innode_2] 0
WCcheckFlow[source_3,innode_4] -1
WCcheckFlow[source_2,innode_7] -1
WCcheckFlow[sink_3,innode_8] 37
